Minimize
 obj: - 17 x_0_0 - 16 x_1_0 - 17 x_2_0 - 15 x_3_0 - 18 x_4_0 - 17 x_5_0 
 - 16 x_6_0 - 18 x_7_0 

Subject To 
 knapsack_0: + 5 x_0_0 + 4 x_1_0 + 1 x_2_0 + 5 x_3_0 + 4 x_4_0 + 1 x_5_0 
 + 2 x_6_0 + 3 x_7_0  <= 8.0

Bounds

Binary
 x_0_0 x_1_0 x_2_0 x_3_0 x_4_0 x_5_0 x_6_0 x_7_0
General

End